c WARNING: for repeatability, setting FPU to use double precision
d VARIABLES            26433        
d CONSTRAINTS          87066        
c ============================[ Problem Statistics ]=============================
c |                                                                             |
c |  Number of variables:         26433                                         |
c |  Number of clauses:           87066                                         |
c |  Parse time:                   0.02 s                                       |
c |                                                                             |
c ============================[ Search Statistics ]==============================
c | Conflicts |          ORIGINAL         |          LEARNT          | Progress |
c |           |    Vars  Clauses Literals |    Limit  Clauses Lit/Cl |          |
c ===============================================================================
c |       100 |   16404    60396   151994 |    22145       99     10 | 37.941 % |
c |       250 |   16404    60392   151986 |    24359      249     32 | 37.941 % |
c |       475 |   16404    60392   151986 |    26795      474     55 | 37.941 % |
c |       812 |   16404    60392   151986 |    29475      811     58 | 37.941 % |
c |      1318 |   16404    60392   151986 |    32422     1317     67 | 37.941 % |
c |      2077 |   16401    60381   151959 |    35665     2075     60 | 37.953 % |
c |      3216 |   16396    60363   151915 |    39231     3212     72 | 37.971 % |
c |      4924 |   16396    60363   151915 |    43154     4920     73 | 37.971 % |
c |      7486 |   16394    60356   151898 |    47470     7481     67 | 37.979 % |
c |     11330 |   16394    60356   151898 |    52217    11325     61 | 37.979 % |
c |     17096 |   16394    60356   151898 |    57438    17091     58 | 37.979 % |
c |     25745 |   16394    60356   151898 |    63182    25740     61 | 37.979 % |
c |     38719 |   16394    60356   151898 |    69501    38714     62 | 37.979 % |
c |     58180 |   16394    60356   151898 |    76451    58175     59 | 37.979 % |
c |     87372 |   16394    60356   151898 |    84096    87367     54 | 37.979 % |
c ===============================================================================
c restarts              : 286
c conflicts             : 109638         (6928 /sec)
c decisions             : 180066         (0.00 % random) (11379 /sec)
c propagations          : 68774096       (4345917 /sec)
c conflict literals     : 5428894        (54.41 % deleted)
d RESTARTS             286
d FAILURES             109638       
d NODES                180066       
d BACKTRACKS           180066       
d PROPAGATIONS         68774096     
d NOGOODSIZE           49.52 
d MEMORY               48.00 
d TIME                 15.825 

s UNSATISFIABLE
